c Output_time 26.03.2020 18:15:14_+0100 1585242914336258660
c ** Program information **
c program_name                          "QBRG_debug"
c version                               "0.3.20"
c date                                  "25.3.2020"
c gid_id                                "673970833836058123f633335630c185360d632e"
c author                                "Oliver Kullmann"
c url                                   "https://github.com/OKullmann/oklibrary/blob/master/Satisfiability/Transformers/Generators/Random/QBRG.cpp"
c ** Machine information **
c machine_name                          "chyna-Lenovo-G50-70"
c bogomips                              3791.08
c ** Compilation information **
c compiler_version                      "g++ 7.5.0"
c compilation_date                      "Mar_26_2020 11:16:30"
c compilation_options                   "--std=c++17 -pedantic -fmax-errors=5 -Wall -Wextra -g -D_GLIBCXX_DEBUG"
c NDEBUG                                0
c OPTIMIZE                              0
c ** Parameters **
c command-line                          "./QBRG_debug" "a40 e40 a40 40" "296*1,1|2-2,1|3-3,1|4-4,1" "" "1,t" ""
c output                                "QuBlRaGe_160_296_1585242914336083778.qdimacs"
c options                               "filtered,renamed"
c num_quantifier_blocks                 4
c  quantifier_blocks                    1:a1-40 2:e41-80 3:a81-120 4:e121-160
c num_clause-blocks                     1
c  clause-blocks                        296 * {1-40,1,1/2} | {41-80,1,1/2} | {81-120,1,1/2} | {121-160,1,1/2}
c num_e-seeds                           37+2=39
c  e-seeds                              1 0 1 0 5 160 2 40 0 40 1 40 0 40 1 296 4 1 1 1 1 2 2 2 1 1 2 3 3 1 1 2 4 4 1 1 2 1 1585242914336083110
p cnf 160 296
a 1 2 3 4 5 6 7 8 9 10 11 12 13 14 15 16 17 18 19 20 21 22 23 24 25 26 27 28 29 30 31 32 33 34 35 36 37 38 39 40 0
e 41 42 43 44 45 46 47 48 49 50 51 52 53 54 55 56 57 58 59 60 61 62 63 64 65 66 67 68 69 70 71 72 73 74 75 76 77 78 79 80 0
a 81 82 83 84 85 86 87 88 89 90 91 92 93 94 95 96 97 98 99 100 101 102 103 104 105 106 107 108 109 110 111 112 113 114 115 116 117 118 119 120 0
e 121 122 123 124 125 126 127 128 129 130 131 132 133 134 135 136 137 138 139 140 141 142 143 144 145 146 147 148 149 150 151 152 153 154 155 156 157 158 159 160 0
27 -44 100 -121 0
39 74 115 -121 0
22 46 116 -121 0
16 -63 119 -121 0
-17 -60 -89 121 0
39 -73 -90 121 0
-22 77 -98 121 0
-28 -50 -100 121 0
-1 67 83 -122 0
-11 -62 -85 -122 0
10 -75 -109 -122 0
32 53 120 -122 0
-17 -55 -90 122 0
33 48 -104 122 0
-1 -64 -105 122 0
-35 56 -117 122 0
13 75 118 122 0
-36 -58 95 -123 0
3 -76 98 -123 0
5 -78 -105 -123 0
1 -55 110 -123 0
-14 50 -114 -123 0
19 69 115 -123 0
-3 77 82 123 0
-30 57 119 123 0
9 69 -94 -124 0
-18 -46 98 -124 0
35 -69 103 -124 0
-23 76 106 -124 0
14 -48 98 124 0
13 -61 98 124 0
-19 49 -88 125 0
11 -74 -94 125 0
14 74 -99 125 0
27 -61 91 -126 0
-11 75 96 -126 0
-35 44 119 -126 0
-37 -72 -85 126 0
36 52 -91 126 0
-34 42 103 126 0
-23 55 103 126 0
-4 -43 111 126 0
-12 58 -112 126 0
20 -64 83 -127 0
40 46 -96 -127 0
40 -68 82 127 0
-38 54 86 127 0
9 -49 90 127 0
26 -51 -92 127 0
-23 43 -90 -128 0
40 -41 -94 -128 0
30 74 -101 -128 0
7 -68 102 -128 0
25 41 112 -128 0
-15 57 -114 -128 0
-13 -54 -86 128 0
-32 74 114 128 0
-28 -50 120 128 0
-3 71 96 -129 0
-20 75 -102 -129 0
-17 -54 -108 -129 0
15 71 108 -129 0
1 48 -110 -129 0
-34 57 -86 -130 0
23 -46 99 -130 0
-4 -58 110 -130 0
23 -46 -113 -130 0
-20 41 -120 -130 0
40 -57 -92 130 0
-38 46 -99 130 0
-18 -70 100 130 0
3 72 -87 -131 0
-39 -76 -103 -131 0
-33 -42 118 -131 0
-22 49 82 131 0
-9 79 82 131 0
-12 53 97 131 0
-28 -65 103 131 0
10 -68 -114 131 0
31 77 87 -132 0
-4 -56 -99 -132 0
-14 56 -107 -132 0
23 -53 -81 -133 0
-2 74 83 -133 0
2 64 89 -133 0
-36 -60 97 -133 0
13 44 101 -133 0
6 77 112 -133 0
-16 -61 83 133 0
-22 -63 -99 -134 0
-28 70 -116 -134 0
26 57 120 -134 0
20 -75 -91 134 0
-20 45 -92 134 0
40 68 -99 134 0
22 79 -104 134 0
-5 56 111 134 0
29 45 -118 134 0
18 56 -118 134 0
-28 -72 114 -135 0
-35 51 -119 -135 0
35 76 -81 135 0
32 -57 -92 135 0
-12 -63 -95 135 0
-23 56 -104 135 0
-27 -47 -105 135 0
-18 -46 -112 135 0
-2 -65 -112 135 0
9 67 -120 135 0
24 42 -108 -136 0
-28 77 -110 -136 0
28 -74 111 -136 0
11 53 113 -136 0
4 69 115 -136 0
3 -49 120 -136 0
33 -54 -94 136 0
12 -51 94 136 0
-30 -58 99 136 0
6 -62 -101 136 0
10 43 102 136 0
9 -45 -86 -137 0
-26 -64 -90 -137 0
19 -70 -100 -137 0
-38 61 104 -137 0
-36 45 106 -137 0
38 67 113 -137 0
-31 -72 -116 -137 0
-31 -54 -114 137 0
-29 -42 -90 -138 0
-4 -68 96 -138 0
-3 68 -103 -138 0
-39 -60 -109 -138 0
-4 64 116 -138 0
26 67 -84 138 0
-28 53 117 138 0
5 -75 -93 -139 0
-17 51 110 -139 0
10 70 -120 -139 0
-18 53 89 139 0
10 -48 -96 139 0
-13 70 -105 139 0
-14 -57 110 139 0
30 56 114 139 0
-24 -57 -117 139 0
-39 55 89 140 0
-13 62 -104 140 0
-19 63 86 -141 0
11 55 -113 -141 0
38 -58 -115 -141 0
17 -46 -81 141 0
-6 75 -85 141 0
35 49 114 141 0
1 46 87 -142 0
20 43 95 -142 0
12 -64 -109 -142 0
-33 -77 -118 -142 0
1 -41 90 142 0
-23 -69 -95 142 0
1 63 -107 142 0
3 -67 84 -143 0
14 63 -95 -143 0
-1 -54 97 -143 0
12 47 116 -143 0
-36 60 -102 143 0
40 -67 -84 -144 0
21 -49 86 -144 0
-24 -54 -89 -144 0
33 73 -86 144 0
-17 -61 86 144 0
2 -59 92 144 0
20 77 -97 144 0
1 56 89 -145 0
30 47 -91 -145 0
24 69 101 -145 0
-21 66 116 -145 0
-40 -74 -81 145 0
6 -72 90 145 0
1 54 97 145 0
29 -62 -112 145 0
8 72 113 145 0
40 48 84 -146 0
11 -72 86 -146 0
-17 -68 95 -146 0
-6 45 112 -146 0
-39 68 86 146 0
-27 74 -89 146 0
10 -72 -97 146 0
16 -69 -100 146 0
-29 -56 103 146 0
-40 44 106 146 0
-29 -67 108 146 0
10 75 90 -147 0
-40 54 96 -147 0
-14 47 99 -147 0
5 68 85 147 0
-4 56 86 147 0
33 -69 -110 147 0
-12 60 -86 -148 0
20 -71 95 -148 0
18 68 108 -148 0
38 -63 87 148 0
5 44 -91 148 0
-22 63 -83 -149 0
30 -45 83 -149 0
-36 -42 94 -149 0
-14 49 117 -149 0
25 -47 83 149 0
-35 62 88 149 0
-26 59 94 149 0
40 53 -109 149 0
-21 -53 115 149 0
2 50 117 149 0
-23 67 92 -150 0
39 -73 99 -150 0
-16 57 118 -150 0
-38 62 -83 150 0
2 -59 -89 150 0
17 -71 -94 150 0
-1 64 94 150 0
-11 67 -111 150 0
-15 -43 -118 -151 0
1 -50 -84 151 0
10 -80 -93 151 0
-22 -57 97 151 0
16 41 -110 151 0
10 -50 96 -152 0
18 -78 96 -152 0
36 61 105 -152 0
39 44 -120 -152 0
-24 45 82 152 0
39 74 -83 152 0
-1 78 -92 152 0
30 -48 -96 152 0
16 43 100 152 0
15 -75 105 152 0
6 -42 120 152 0
-12 -44 -88 -153 0
17 -66 -100 -153 0
-26 73 -102 -153 0
-25 80 -119 -153 0
4 -45 -92 153 0
-2 58 -92 153 0
12 -73 100 153 0
22 44 114 153 0
13 -76 -92 -154 0
33 -72 -100 -154 0
-20 46 -103 -154 0
-37 -45 96 154 0
-28 56 -116 154 0
-2 -68 116 154 0
-38 -76 -96 -155 0
-38 -47 -105 -155 0
11 -64 81 155 0
8 -48 90 155 0
18 74 -91 155 0
12 47 92 155 0
-8 45 95 155 0
-26 -70 -97 155 0
14 77 -101 155 0
29 60 108 155 0
16 -48 -120 155 0
29 55 111 -156 0
-39 63 -115 -156 0
-29 -55 84 156 0
-13 -70 -87 156 0
40 78 -95 156 0
-19 -42 -103 156 0
12 -51 106 156 0
10 -70 85 -157 0
-21 51 98 -157 0
14 -47 -111 -157 0
-18 -65 -120 -157 0
1 41 -86 157 0
-21 -67 -97 157 0
28 -58 -105 157 0
10 60 112 157 0
36 -47 -101 -158 0
-22 68 117 -158 0
-6 -80 -119 -158 0
5 41 -101 158 0
-20 -56 -102 158 0
-23 -73 109 158 0
15 -64 83 -159 0
21 -71 -112 -159 0
-32 -53 -117 -159 0
27 -60 86 159 0
22 78 89 159 0
2 67 89 -160 0
-11 -69 -95 -160 0
-21 -67 107 -160 0
6 45 -120 -160 0
-38 72 87 160 0
-32 66 -97 160 0
-23 51 101 160 0
-29 -66 103 160 0
9 -48 -120 160 0
